Version identifier: 22.1.1.0 | 2022-11-28 | 9160aff4d
CPXPARAM_ClockType                               1
CPXPARAM_Read_DataCheck                          1
CPXPARAM_Threads                                 1
CPXPARAM_TimeLimit                               7200
CPXPARAM_MIP_Tolerances_AbsMIPGap                0
CPXPARAM_MIP_Tolerances_MIPGap                   0
CPXPARAM_MIP_Tolerances_Integrality              0
Tried aggregator 2 times.
MIP Presolve eliminated 857 rows and 4 columns.
MIP Presolve modified 468 coefficients.
Aggregator did 150 substitutions.
Reduced MIP has 4264 rows, 1946 columns, and 14306 nonzeros.
Reduced MIP has 1946 binaries, 0 generals, 0 SOSs, and 0 indicators.
Presolve time = 0.02 sec. (13.77 ticks)
Probing time = 0.01 sec. (2.56 ticks)
Tried aggregator 1 time.
Detecting symmetries...
MIP Presolve eliminated 250 rows and 0 columns.
Reduced MIP has 4014 rows, 1946 columns, and 13556 nonzeros.
Reduced MIP has 1946 binaries, 0 generals, 0 SOSs, and 0 indicators.
Presolve time = 0.01 sec. (10.77 ticks)
Probing time = 0.00 sec. (2.48 ticks)
Clique table members: 2492.
MIP emphasis: balance optimality and feasibility.
MIP search method: dynamic search.
Parallel mode: none, using 1 thread.
Root relaxation solution time = 0.16 sec. (95.84 ticks)

        Nodes                                         Cuts/
   Node  Left     Objective  IInf  Best Integer    Best Bound    ItCnt     Gap

      0     0      800.0000   478                    800.0000     1117         
      0     0      800.0000   600                   Cuts: 252     2028         
      0     0      800.0000   566                    Cuts: 16     2187         
      0     0      800.0000   587                    Cuts: 66     2478         
*     0+    0                          580.0000      800.0000            37.93%
*     0+    0                          588.0000      800.0000            36.05%
*     0+    0                          596.0000      800.0000            34.23%
      0     0        cutoff            596.0000      800.0000     2478   34.23%
Detecting symmetries...
      0     2      800.0000   282      596.0000      800.0000     2478   34.23%
Elapsed time = 2.07 sec. (1321.84 ticks, tree = 0.01 MB, solutions = 3)
      5     7      800.0000   179      596.0000      800.0000     4518   34.23%
      7     9      800.0000   298      596.0000      800.0000     6894   34.23%
     10    12      800.0000   351      596.0000      800.0000     8164   34.23%
*    16     1      integral     0      800.0000      800.0000     9106    0.00%

GUB cover cuts applied:  1
Clique cuts applied:  8
Implied bound cuts applied:  2
Zero-half cuts applied:  14

Root node processing (before b&c):
  Real time             =    2.07 sec. (1320.48 ticks)
Sequential b&c:
  Real time             =    1.27 sec. (953.98 ticks)
                          ------------
Total (root+branch&cut) =    3.34 sec. (2274.46 ticks)
Solution is feasible.

---------------------
@@@ MIP_optimal
>>> Benchmark flat50-6.cnf k 5 OPT 800 TimeCost 3.6802561283111572 TimeSolve 3.378586769104004 TimeRead 0.019563913345336914 TimeTrans 0.2821054458618164
